p cnf 86 602
-86 -83 -43 -40 -3 0
-86 -46 -43 -6 -3 0
-85 -82 -42 -39 -2 0
-85 -45 -42 -5 -2 0
-84 -81 -41 -38 -1 0
-84 -44 -41 -4 -1 0
-83 -80 -43 -40 -37 0
-82 -79 -42 -39 -36 0
-81 -78 -41 -38 -35 0
-80 -77 -40 -37 -34 0
-79 -76 -39 -36 -33 0
-78 -75 -38 -35 -32 0
-77 -74 -37 -34 -31 0
-76 -73 -36 -33 -30 0
-75 -72 -35 -32 -29 0
-74 -71 -34 -31 -28 0
-73 -70 -33 -30 -27 0
-72 -69 -32 -29 -26 0
-71 -68 -31 -28 -25 0
-70 -67 -30 -27 -24 0
-69 -66 -29 -26 -23 0
-68 -65 -28 -25 -22 0
-67 -64 -27 -24 -21 0
-66 -63 -26 -23 -20 0
-65 -62 -25 -22 -19 0
-64 -61 -24 -21 -18 0
-63 -60 -23 -20 -17 0
-62 -59 -22 -19 -16 0
-61 -58 -21 -18 -15 0
-60 -57 -20 -17 -14 0
-59 -56 -19 -16 -13 0
-58 -55 -18 -15 -12 0
-57 -54 -17 -14 -11 0
-56 -53 -16 -13 -10 0
-55 -52 -15 -12 -9 0
-54 -51 -14 -11 -8 0
-53 -50 -13 -10 -7 0
-52 -49 -12 -9 -6 0
-51 -48 -11 -8 -5 0
-50 -47 -10 -7 -4 0
-49 -46 -9 -6 -3 0
-48 -45 -8 -5 -2 0
-47 -44 -7 -4 -1 0
1 14 0
1 20 0
1 20 69 78 0
1 25 0
1 25 50 59 0
1 31 0
1 50 0
1 50 59 0
1 50 78 0
1 69 78 0
1 78 0
2 15 0
2 21 0
2 21 70 79 0
2 26 0
2 26 51 60 0
2 32 0
2 51 0
2 51 60 0
2 51 79 0
2 70 79 0
2 79 0
3 16 0
3 22 0
3 22 71 80 0
3 27 0
3 27 52 61 0
3 33 0
3 52 0
3 52 61 0
3 52 80 0
3 71 80 0
3 80 0
4 17 0
4 23 0
4 23 72 81 0
4 28 0
4 28 53 62 0
4 34 0
4 53 0
4 53 62 0
4 53 81 0
4 72 81 0
4 81 0
5 18 0
5 24 0
5 24 73 82 0
5 29 0
5 29 54 63 0
5 35 0
5 54 0
5 54 63 0
5 54 82 0
5 73 82 0
5 82 0
6 19 0
6 25 0
6 25 74 83 0
6 30 0
6 30 55 64 0
6 36 0
6 55 0
6 55 64 0
6 55 83 0
6 74 83 0
6 83 0
7 20 0
7 26 0
7 26 75 84 0
7 31 0
7 31 56 65 0
7 37 0
7 56 0
7 56 65 0
7 56 84 0
7 75 84 0
7 84 0
8 21 0
8 27 0
8 27 76 85 0
8 32 0
8 32 57 66 0
8 38 0
8 57 0
8 57 66 0
8 57 85 0
8 76 85 0
8 85 0
9 22 0
9 28 0
9 28 77 86 0
9 33 0
9 33 58 67 0
9 39 0
9 58 0
9 58 67 0
9 58 86 0
9 77 86 0
9 86 0
10 23 0
10 29 0
10 29 44 78 0
10 34 0
10 34 59 68 0
10 40 0
10 44 0
10 44 59 0
10 44 78 0
10 59 0
10 59 68 0
11 24 0
11 30 0
11 30 45 79 0
11 35 0
11 35 60 69 0
11 41 0
11 45 0
11 45 60 0
11 45 79 0
11 60 0
11 60 69 0
12 25 0
12 31 0
12 31 46 80 0
12 36 0
12 36 61 70 0
12 42 0
12 46 0
12 46 61 0
12 46 80 0
12 61 0
12 61 70 0
13 26 0
13 32 0
13 32 47 81 0
13 37 0
13 37 62 71 0
13 43 0
13 47 0
13 47 62 0
13 47 81 0
13 62 0
13 62 71 0
14 27 0
14 33 0
14 33 48 82 0
14 38 0
14 38 63 72 0
14 48 0
14 48 63 0
14 48 82 0
14 63 0
14 63 72 0
15 28 0
15 34 0
15 34 49 83 0
15 39 0
15 39 64 73 0
15 49 0
15 49 64 0
15 49 83 0
15 64 0
15 64 73 0
16 29 0
16 35 0
16 35 50 84 0
16 40 0
16 40 65 74 0
16 50 0
16 50 65 0
16 50 84 0
16 65 0
16 65 74 0
17 30 0
17 36 0
17 36 51 85 0
17 41 0
17 41 66 75 0
17 51 0
17 51 66 0
17 51 85 0
17 66 0
17 66 75 0
18 31 0
18 37 0
18 37 52 86 0
18 42 0
18 42 67 76 0
18 52 0
18 52 67 0
18 52 86 0
18 67 0
18 67 76 0
19 32 0
19 38 0
19 38 44 53 0
19 43 0
19 43 68 77 0
19 44 53 0
19 53 0
19 53 68 0
19 68 0
19 68 77 0
20 33 0
20 39 0
20 39 45 54 0
20 45 54 0
20 54 0
20 54 69 0
20 69 0
20 69 78 0
21 34 0
21 40 0
21 40 46 55 0
21 46 55 0
21 55 0
21 55 70 0
21 70 0
21 70 79 0
22 35 0
22 41 0
22 41 47 56 0
22 47 56 0
22 56 0
22 56 71 0
22 71 0
22 71 80 0
23 36 0
23 42 0
23 42 48 57 0
23 48 57 0
23 57 0
23 57 72 0
23 72 0
23 72 81 0
24 37 0
24 43 0
24 43 49 58 0
24 49 58 0
24 58 0
24 58 73 0
24 73 0
24 73 82 0
25 38 0
25 50 59 0
25 59 0
25 59 74 0
25 74 0
25 74 83 0
26 39 0
26 51 60 0
26 60 0
26 60 75 0
26 75 0
26 75 84 0
27 40 0
27 52 61 0
27 61 0
27 61 76 0
27 76 0
27 76 85 0
28 41 0
28 53 62 0
28 62 0
28 62 77 0
28 77 0
28 77 86 0
29 42 0
29 44 78 0
29 54 63 0
29 63 0
29 63 78 0
29 78 0
30 43 0
30 45 79 0
30 55 64 0
30 64 0
30 64 79 0
30 79 0
31 46 80 0
31 56 65 0
31 65 0
31 65 80 0
31 80 0
32 47 81 0
32 57 66 0
32 66 0
32 66 81 0
32 81 0
33 48 82 0
33 58 67 0
33 67 0
33 67 82 0
33 82 0
34 49 83 0
34 59 68 0
34 68 0
34 68 83 0
34 83 0
35 50 84 0
35 60 69 0
35 69 0
35 69 84 0
35 84 0
36 51 85 0
36 61 70 0
36 70 0
36 70 85 0
36 85 0
37 52 86 0
37 62 71 0
37 71 0
37 71 86 0
37 86 0
38 44 0
38 44 53 0
38 44 72 0
38 63 72 0
38 72 0
39 45 0
39 45 54 0
39 45 73 0
39 64 73 0
39 73 0
40 46 0
40 46 55 0
40 46 74 0
40 65 74 0
40 74 0
41 47 0
41 47 56 0
41 47 75 0
41 66 75 0
41 75 0
42 48 0
42 48 57 0
42 48 76 0
42 67 76 0
42 76 0
43 49 0
43 49 58 0
43 49 77 0
43 68 77 0
43 77 0
44 0
44 48 0
44 53 0
44 53 62 71 0
44 53 62 78 0
44 53 69 78 0
44 60 0
44 60 69 78 0
44 71 0
44 78 0
44 83 0
45 0
45 49 0
45 54 0
45 54 63 72 0
45 54 63 79 0
45 54 70 79 0
45 61 0
45 61 70 79 0
45 72 0
45 79 0
45 84 0
46 0
46 50 0
46 55 0
46 55 64 73 0
46 55 64 80 0
46 55 71 80 0
46 62 0
46 62 71 80 0
46 73 0
46 80 0
46 85 0
47 0
47 51 0
47 56 0
47 56 65 74 0
47 56 65 81 0
47 56 72 81 0
47 63 0
47 63 72 81 0
47 74 0
47 81 0
47 86 0
48 0
48 52 0
48 57 0
48 57 66 75 0
48 57 66 82 0
48 57 73 82 0
48 64 0
48 64 73 82 0
48 75 0
48 82 0
49 0
49 53 0
49 58 0
49 58 67 76 0
49 58 67 83 0
49 58 74 83 0
49 65 0
49 65 74 83 0
49 76 0
49 83 0
50 0
50 54 0
50 59 0
50 59 68 77 0
50 59 68 84 0
50 59 75 84 0
50 66 0
50 66 75 84 0
50 77 0
50 84 0
51 0
51 55 0
51 60 0
51 60 69 78 0
51 60 69 85 0
51 60 76 85 0
51 67 0
51 67 76 85 0
51 78 0
51 85 0
52 0
52 56 0
52 61 0
52 61 70 79 0
52 61 70 86 0
52 61 77 86 0
52 68 0
52 68 77 86 0
52 79 0
52 86 0
53 0
53 57 0
53 62 0
53 62 71 80 0
53 69 0
53 80 0
54 0
54 58 0
54 63 0
54 63 72 81 0
54 70 0
54 81 0
55 0
55 59 0
55 64 0
55 64 73 82 0
55 71 0
55 82 0
56 0
56 60 0
56 65 0
56 65 74 83 0
56 72 0
56 83 0
57 0
57 61 0
57 66 0
57 66 75 84 0
57 73 0
57 84 0
58 0
58 62 0
58 67 0
58 67 76 85 0
58 74 0
58 85 0
59 0
59 63 0
59 68 0
59 68 77 86 0
59 75 0
59 86 0
60 0
60 64 0
60 69 0
60 76 0
61 0
61 65 0
61 70 0
61 77 0
62 0
62 66 0
62 71 0
62 78 0
63 0
63 67 0
63 72 0
63 79 0
64 0
64 68 0
64 73 0
64 80 0
65 0
65 69 0
65 74 0
65 81 0
66 0
66 70 0
66 75 0
66 82 0
67 0
67 71 0
67 76 0
67 83 0
68 0
68 72 0
68 77 0
68 84 0
69 0
69 73 0
69 78 0
69 85 0
70 0
70 74 0
70 79 0
70 86 0
71 0
71 75 0
71 80 0
72 0
72 76 0
72 81 0
73 0
73 77 0
73 82 0
74 0
74 78 0
74 83 0
75 0
75 79 0
75 84 0
76 0
76 80 0
76 85 0
77 0
77 81 0
77 86 0
78 0
78 82 0
79 0
79 83 0
80 0
80 84 0
81 0
81 85 0
82 0
82 86 0
83 0
84 0
85 0
86 0
